nzones = 0;
nturb = 20;

R = 38.5;

w = 3000;
h = 3000;

zx = [];
zy = [];
zwidth = [];
zheight = [];

  init_x = [ 0, 0, 0, 0, 750, 750, 750, 750, 1500, 1500, 1500, 1500, 2250, 2250, 2250, 2250, 3000, 3000, 3000, 3000 ];
init_y = [ 0, 1000, 2000, 3000, 0, 1000, 2000, 3000, 0, 1000, 2000, 3000, 0, 1000, 2000, 3000, 0, 1000, 2000, 3000 ];
